1 82 76
 2 96 44
 3 50 5
 4 49 8
 5 13 7
 6 29 89
 7 58 30
 8 84 39
 9 14 24
 10 2 39
 11 3 82
 12 5 10
 13 98 52
 14 84 25
 15 61 59
 16 1 65
 17 88 51
 18 91 2
 19 19 32
 20 93 3
 21 50 93
 22 98 14
 23 5 42
 24 42 9
 25 61 62
 26 9 97
 27 80 55
 28 57 69
 29 23 15
 30 20 70
 31 85 60
 32 98 5